
n_res = 8;
rcap = [48, 48, 55, 50, 1254, 1260, 1275, 1320];
rtype = [1, 1, 1, 1, 2, 2, 2, 2];
n_tasks = 100;
modes =  [{1, 2, 3, 4, 5, 6}, {7, 8, 9, 10, 11, 12}, {13, 14, 15, 16, 17, 18}, {19, 20, 21, 22, 23, 24}, {25, 26, 27, 28, 29, 30}, {31, 32, 33, 34, 35, 36}, {37, 38, 39, 40, 41, 42}, {43, 44, 45, 46, 47, 48}, {49, 50, 51, 52, 53, 54}, {55, 56, 57, 58, 59, 60}, {61, 62, 63, 64, 65, 66}, {67, 68, 69, 70, 71, 72}, {73, 74, 75, 76, 77, 78}, {79, 80, 81, 82, 83, 84}, {85, 86, 87, 88, 89, 90}, {91, 92, 93, 94, 95, 96}, {97, 98, 99, 100, 101, 102}, {103, 104, 105, 106, 107, 108}, {109, 110, 111, 112, 113, 114}, {115, 116, 117, 118, 119, 120}, {121, 122, 123, 124, 125, 126}, {127, 128, 129, 130, 131, 132}, {133, 134, 135, 136, 137, 138}, {139, 140, 141, 142, 143, 144}, {145, 146, 147, 148, 149, 150}, {151, 152, 153, 154, 155, 156}, {157, 158, 159, 160, 161, 162}, {163, 164, 165, 166, 167, 168}, {169, 170, 171, 172, 173, 174}, {175, 176, 177, 178, 179, 180}, {181, 182, 183, 184, 185, 186}, {187, 188, 189, 190, 191, 192}, {193, 194, 195, 196, 197, 198}, {199, 200, 201, 202, 203, 204}, {205, 206, 207, 208, 209, 210}, {211, 212, 213, 214, 215, 216}, {217, 218, 219, 220, 221, 222}, {223, 224, 225, 226, 227, 228}, {229, 230, 231, 232, 233, 234}, {235, 236, 237, 238, 239, 240}, {241, 242, 243, 244, 245, 246}, {247, 248, 249, 250, 251, 252}, {253, 254, 255, 256, 257, 258}, {259, 260, 261, 262, 263, 264}, {265, 266, 267, 268, 269, 270}, {271, 272, 273, 274, 275, 276}, {277, 278, 279, 280, 281, 282}, {283, 284, 285, 286, 287, 288}, {289, 290, 291, 292, 293, 294}, {295, 296, 297, 298, 299, 300}, {301, 302, 303, 304, 305, 306}, {307, 308, 309, 310, 311, 312}, {313, 314, 315, 316, 317, 318}, {319, 320, 321, 322, 323, 324}, {325, 326, 327, 328, 329, 330}, {331, 332, 333, 334, 335, 336}, {337, 338, 339, 340, 341, 342}, {343, 344, 345, 346, 347, 348}, {349, 350, 351, 352, 353, 354}, {355, 356, 357, 358, 359, 360}, {361, 362, 363, 364, 365, 366}, {367, 368, 369, 370, 371, 372}, {373, 374, 375, 376, 377, 378}, {379, 380, 381, 382, 383, 384}, {385, 386, 387, 388, 389, 390}, {391, 392, 393, 394, 395, 396}, {397, 398, 399, 400, 401, 402}, {403, 404, 405, 406, 407, 408}, {409, 410, 411, 412, 413, 414}, {415, 416, 417, 418, 419, 420}, {421, 422, 423, 424, 425, 426}, {427, 428, 429, 430, 431, 432}, {433, 434, 435, 436, 437, 438}, {439, 440, 441, 442, 443, 444}, {445, 446, 447, 448, 449, 450}, {451, 452, 453, 454, 455, 456}, {457, 458, 459, 460, 461, 462}, {463, 464, 465, 466, 467, 468}, {469, 470, 471, 472, 473, 474}, {475, 476, 477, 478, 479, 480}, {481, 482, 483, 484, 485, 486}, {487, 488, 489, 490, 491, 492}, {493, 494, 495, 496, 497, 498}, {499, 500, 501, 502, 503, 504}, {505, 506, 507, 508, 509, 510}, {511, 512, 513, 514, 515, 516}, {517, 518, 519, 520, 521, 522}, {523, 524, 525, 526, 527, 528}, {529, 530, 531, 532, 533, 534}, {535, 536, 537, 538, 539, 540}, {541, 542, 543, 544, 545, 546}, {547, 548, 549, 550, 551, 552}, {553, 554, 555, 556, 557, 558}, {559, 560, 561, 562, 563, 564}, {565, 566, 567, 568, 569, 570}, {571, 572, 573, 574, 575, 576}, {577, 578, 579, 580, 581, 582}, {583, 584, 585, 586, 587, 588}, {589, 590, 591, 592, 593, 594}, {595, 596, 597, 598, 599, 600}];
succ =  [{100, 99, 98, 94, 73, 57, 56, 47, 46, 44, 43, 41, 37, 36, 35, 30, 25}, {97, 95, 74, 72, 70, 66, 56, 52, 49, 47, 46, 45, 44, 31, 25}, {93, 72, 64, 56, 55, 52, 49, 48, 47, 45, 15}, {97, 95, 94, 93, 90, 74, 71, 69, 66, 64, 63, 62, 61, 60, 58, 53, 49, 44, 37, 28}, {99, 97, 95, 94, 93, 92, 89, 74, 72, 65, 61, 59, 58, 57, 54, 52, 48, 47, 44, 30}, {99, 98, 97, 96, 95, 93, 68, 61, 60, 53, 52, 47, 46, 44, 43, 42, 30}, {93, 92, 89, 72, 67, 61, 60, 58, 57, 56, 53, 48, 47, 43, 38, 30}, {97, 96, 93, 91, 90, 89, 70, 69, 68, 63, 62, 60, 59, 58, 50, 42, 31}, {98, 96, 94, 93, 85, 73, 68, 66, 65, 62, 60, 58, 46, 45, 32, 28}, {96, 93, 73, 70, 68, 66, 63, 62, 60, 58, 46, 44, 40, 28}, {97, 96, 95, 94, 71, 70, 68, 62, 60, 59, 52, 42, 29}, {100, 98, 97, 96, 95, 94, 92, 91, 86, 82, 71, 68, 67, 66, 65, 62, 59, 56, 54, 48, 46}, {93, 92, 88, 85, 78, 74, 73, 71, 70, 69, 68, 67, 61, 57, 56, 46, 36}, {93, 89, 74, 73, 68, 65, 61, 60, 57, 56, 55, 45, 30}, {95, 94, 92, 91, 89, 74, 73, 67, 65, 61, 60, 59, 58, 57, 30}, {98, 93, 83, 68, 66, 63, 60, 58, 57, 53, 52, 51, 43, 42}, {96, 93, 92, 90, 89, 88, 87, 79, 77, 73, 72, 71, 70, 68, 66, 65, 62, 56, 53, 48}, {97, 96, 95, 93, 82, 73, 70, 66, 65, 64, 61, 59, 56, 52, 48, 47}, {97, 95, 94, 93, 90, 89, 86, 83, 77, 72, 70, 62, 61, 58, 42}, {95, 94, 92, 90, 89, 88, 82, 79, 78, 74, 70, 65, 61, 56, 52, 48}, {97, 96, 94, 93, 91, 87, 85, 82, 72, 70, 68, 66, 59, 57, 56, 46}, {96, 93, 90, 89, 85, 81, 78, 77, 70, 69, 65, 61, 58, 43}, {96, 95, 91, 90, 82, 80, 72, 66, 65, 60, 56, 49, 44}, {95, 91, 74, 66, 56, 46, 41}, {96, 93, 91, 89, 82, 79, 68, 60, 40}, {95, 94, 93, 89, 86, 83, 82, 73, 71, 66, 65, 56, 47}, {99, 95, 91, 87, 85, 83, 82, 80, 78, 74, 68, 59, 56}, {92, 89, 83, 80, 77, 67, 57, 56, 43}, {93, 90, 89, 84, 83, 80, 77, 66, 65, 58, 53}, {88, 86, 85, 83, 82, 81, 79, 77, 76, 71, 70, 66, 62}, {98, 94, 84, 83, 73, 71, 61, 57, 54}, {92, 89, 88, 87, 86, 83, 81, 78, 77, 75, 72, 71, 70}, {96, 94, 80, 79, 78, 77, 67, 56, 53}, {94, 92, 90, 86, 85, 84, 82, 79, 67, 54}, {95, 91, 89, 79, 78, 77, 76, 65, 48}, {90, 89, 84, 83, 82, 72, 65, 60, 59}, {96, 88, 87, 86, 85, 82, 81, 80, 79, 78, 76, 75}, {95, 94, 88, 86, 84, 82, 79, 77, 68, 65}, {94, 91, 83, 68, 67, 66, 60}, {92, 88, 85, 83, 81, 78, 77, 69, 65}, {85, 83, 82, 81, 77, 75, 69, 61}, {92, 88, 85, 82, 80, 79, 67, 65}, {91, 87, 86, 82, 76, 59}, {84, 83, 77, 76, 75, 67}, {90, 87, 82, 77, 59}, {90, 89, 83, 79, 77, 76}, {90, 80, 79, 78, 76, 75}, {85, 83, 81, 75, 69}, {83, 79, 77, 75, 68}, {87, 85, 78, 77, 76}, {88, 86, 77, 65}, {91, 77, 76, 75}, {86, 85, 82, 76}, {88, 78, 77, 75}, {78, 76, 69}, {84, 81, 75}, {79, 76, 75}, {87, 76, 75}, {79, 75}, {86, 75}, {87, 76}, {78, 75}, {84, 78}, {85, 75}, {75}, {78}, {81}, {76}, {80}, {84}, {80}, {76}, {75}, {77}, {}, {}, {}, {}, {}, {}, {}, {}, {}, {}, {}, {}, {}, {}, {}, {}, {}, {}, {}, {}, {}, {}, {}, {}, {}, {}];
n_opt = 600;
dur = [10, 14, 20, 21, 24, 27, 5, 16, 19, 21, 22, 24, 8, 17, 18, 21, 22, 24, 5, 14, 15, 19, 21, 22, 3, 7, 12, 16, 24, 30, 9, 12, 14, 17, 23, 30, 4, 11, 13, 16, 26, 27, 6, 12, 16, 23, 29, 30, 6, 15, 18, 24, 25, 30, 1, 20, 22, 24, 25, 27, 5, 6, 11, 16, 17, 20, 12, 19, 20, 23, 24, 30, 4, 10, 16, 20, 21, 24, 1, 4, 9, 12, 13, 30, 2, 4, 13, 17, 23, 24, 5, 7, 8, 9, 12, 24, 1, 2, 3, 13, 14, 27, 8, 18, 19, 20, 21, 30, 4, 8, 13, 18, 22, 24, 2, 4, 8, 15, 28, 29, 6, 7, 16, 18, 19, 25, 4, 7, 9, 14, 20, 23, 2, 8, 10, 13, 24, 29, 16, 18, 19, 23, 24, 28, 2, 4, 5, 15, 22, 23, 1, 3, 8, 17, 18, 29, 2, 3, 4, 8, 9, 29, 12, 13, 22, 23, 24, 26, 10, 18, 19, 20, 21, 30, 2, 20, 22, 26, 27, 30, 1, 2, 3, 8, 14, 15, 4, 5, 10, 14, 23, 25, 6, 7, 13, 15, 25, 29, 9, 10, 11, 21, 22, 29, 4, 11, 15, 25, 26, 28, 3, 4, 11, 12, 13, 29, 1, 6, 7, 12, 14, 26, 2, 3, 12, 14, 21, 22, 1, 10, 11, 18, 19, 24, 4, 16, 18, 19, 22, 24, 2, 3, 22, 26, 27, 28, 7, 11, 17, 19, 22, 30, 1, 8, 18, 24, 25, 30, 8, 14, 16, 17, 24, 27, 6, 12, 14, 15, 25, 29, 1, 2, 3, 6, 13, 23, 2, 6, 7, 12, 13, 20, 4, 5, 8, 15, 23, 24, 9, 10, 12, 15, 22, 25, 4, 6, 15, 17, 20, 24, 2, 5, 11, 15, 19, 25, 1, 4, 11, 23, 25, 29, 4, 5, 24, 25, 29, 30, 6, 12, 17, 21, 23, 30, 6, 7, 12, 16, 18, 23, 3, 4, 11, 13, 14, 18, 3, 6, 12, 14, 20, 22, 8, 16, 18, 20, 24, 28, 1, 12, 18, 19, 20, 26, 2, 9, 14, 20, 23, 27, 1, 4, 10, 13, 20, 30, 2, 4, 5, 13, 14, 26, 10, 15, 17, 22, 24, 29, 3, 5, 18, 19, 23, 30, 9, 10, 18, 20, 23, 26, 1, 19, 22, 23, 25, 28, 17, 18, 20, 24, 28, 30, 2, 6, 7, 10, 11, 25, 15, 17, 22, 25, 27, 30, 3, 5, 16, 22, 25, 28, 4, 12, 14, 17, 21, 30, 6, 9, 16, 17, 29, 30, 14, 19, 20, 21, 22, 27, 2, 8, 18, 24, 25, 27, 3, 7, 15, 16, 17, 21, 11, 18, 20, 21, 24, 30, 6, 8, 14, 21, 23, 24, 9, 11, 17, 19, 23, 25, 16, 18, 19, 20, 21, 25, 4, 6, 11, 23, 26, 27, 4, 5, 9, 18, 21, 29, 4, 7, 25, 26, 27, 30, 9, 14, 17, 21, 28, 29, 1, 8, 10, 15, 16, 22, 2, 9, 21, 23, 25, 26, 2, 3, 4, 22, 27, 28, 7, 9, 14, 22, 26, 28, 5, 7, 8, 22, 23, 26, 3, 5, 8, 12, 25, 28, 11, 12, 13, 18, 20, 26, 2, 3, 6, 15, 17, 19, 2, 5, 9, 13, 15, 21, 7, 8, 9, 19, 25, 27, 10, 11, 14, 26, 28, 29, 8, 10, 11, 21, 22, 24, 6, 13, 15, 19, 24, 28, 14, 15, 18, 20, 22, 30, 11, 16, 17, 20, 29, 30, 2, 5, 8, 13, 22, 27, 3, 13, 19, 22, 23, 24];
rreq = [|5, 3, 3, 3, 2, 1, 3, 3, 3, 3, 3, 3, 3, 3, 3, 3, 3, 3, 5, 4, 4, 3, 3, 3, 3, 2, 2, 2, 1, 1, 1, 1, 1, 1, 1, 1, 1, 1, 1, 1, 1, 1, 2, 2, 2, 2, 1, 1, 3, 3, 3, 2, 2, 2, 4, 4, 4, 3, 3, 3, 4, 4, 4, 3, 3, 3, 3, 2, 2, 1, 1, 1, 4, 3, 3, 2, 2, 2, 4, 4, 4, 4, 4, 4, 5, 4, 3, 3, 1, 1, 2, 1, 1, 1, 1, 1, 4, 3, 3, 3, 2, 2, 4, 3, 3, 3, 3, 3, 4, 3, 3, 3, 3, 3, 4, 3, 3, 3, 3, 3, 2, 1, 1, 1, 1, 1, 3, 3, 3, 3, 3, 3, 5, 5, 5, 5, 5, 5, 4, 4, 4, 4, 4, 4, 5, 3, 3, 2, 2, 1, 2, 2, 2, 2, 2, 2, 1, 1, 1, 1, 1, 1, 3, 3, 3, 2, 2, 2, 3, 3, 2, 2, 2, 1, 4, 4, 4, 4, 3, 3, 4, 4, 4, 4, 4, 4, 4, 3, 3, 3, 2, 2, 4, 4, 4, 4, 3, 3, 3, 3, 2, 2, 1, 1, 5, 4, 4, 3, 3, 3, 5, 4, 4, 4, 4, 4, 1, 1, 1, 1, 1, 1, 3, 3, 3, 3, 3, 3, 5, 5, 5, 5, 5, 5, 2, 2, 2, 2, 1, 1, 5, 4, 4, 4, 3, 3, 4, 3, 3, 2, 2, 2, 1, 1, 1, 1, 1, 1, 2, 2, 2, 2, 2, 2, 1, 1, 1, 1, 1, 1, 1, 1, 1, 1, 1, 1, 2, 2, 2, 2, 2, 2, 4, 4, 4, 4, 4, 4, 3, 3, 3, 3, 3, 3, 2, 2, 2, 2, 2, 2, 4, 4, 3, 3, 3, 2, 2, 1, 1, 1, 1, 1, 4, 3, 3, 3, 3, 3, 5, 4, 4, 3, 3, 3, 5, 4, 3, 2, 1, 1, 5, 5, 5, 5, 5, 5, 1, 1, 1, 1, 1, 1, 4, 3, 3, 2, 2, 1, 4, 4, 3, 3, 2, 2, 3, 2, 2, 2, 2, 2, 4, 3, 3, 3, 2, 2, 5, 5, 5, 5, 5, 5, 3, 2, 2, 1, 1, 1, 5, 4, 4, 3, 3, 3, 3, 3, 3, 2, 2, 2, 2, 2, 2, 1, 1, 1, 2, 2, 2, 2, 2, 2, 4, 4, 4, 3, 3, 3, 4, 4, 4, 4, 4, 4, 4, 3, 3, 2, 2, 2, 4, 3, 3, 3, 2, 1, 4, 3, 3, 2, 2, 2, 3, 3, 3, 3, 3, 3, 5, 5, 5, 5, 5, 5, 3, 3, 2, 2, 2, 1, 5, 4, 4, 3, 2, 2, 3, 3, 2, 2, 2, 1, 2, 2, 2, 2, 2, 2, 4, 3, 2, 2, 2, 1, 3, 3, 2, 2, 1, 1, 4, 4, 4, 4, 4, 4, 2, 2, 2, 2, 2, 2, 3, 3, 3, 3, 3, 3, 4, 3, 2, 2, 2, 1, 1, 1, 1, 1, 1, 1, 3, 3, 3, 2, 1, 1, 3, 2, 2, 2, 1, 1, 3, 3, 3, 2, 2, 1, 5, 4, 4, 4, 4, 4, 4, 3, 3, 3, 2, 2, 3, 3, 3, 3, 3, 3, 2, 2, 2, 2, 2, 2, 5, 3, 3, 3, 1, 1, 4, 4, 4, 4, 4, 4, 1, 1, 1, 1, 1, 1, 4, 4, 4, 3, 2, 2, 1, 1, 1, 1, 1, 1, 5, 5, 5, 5, 5, 5, 3, 3, 3, 2, 2, 2, 2, 2, 2, 2, 2, 2
 |4, 3, 3, 3, 3, 3, 1, 1, 1, 1, 1, 1, 2, 2, 2, 2, 2, 2, 3, 2, 2, 2, 2, 2, 5, 4, 4, 4, 3, 3, 4, 4, 4, 3, 3, 3, 5, 4, 4, 4, 4, 4, 3, 3, 3, 2, 2, 2, 3, 3, 3, 3, 3, 3, 2, 2, 2, 2, 2, 2, 5, 5, 5, 5, 5, 5, 5, 5, 5, 5, 5, 5, 4, 3, 3, 3, 3, 3, 4, 3, 3, 3, 2, 2, 5, 4, 3, 2, 2, 1, 2, 1, 1, 1, 1, 1, 1, 1, 1, 1, 1, 1, 3, 3, 3, 2, 2, 1, 3, 3, 3, 2, 2, 1, 5, 5, 5, 5, 5, 5, 1, 1, 1, 1, 1, 1, 5, 4, 4, 4, 3, 3, 3, 3, 3, 2, 1, 1, 3, 3, 3, 3, 3, 3, 3, 3, 2, 2, 2, 1, 2, 2, 2, 2, 2, 2, 3, 3, 3, 3, 2, 2, 5, 4, 4, 3, 3, 2, 3, 3, 3, 2, 1, 1, 1, 1, 1, 1, 1, 1, 3, 2, 2, 2, 1, 1, 4, 4, 4, 4, 4, 4, 4, 3, 3, 2, 2, 2, 3, 3, 3, 2, 2, 2, 3, 3, 3, 3, 3, 3, 4, 4, 4, 4, 4, 4, 1, 1, 1, 1, 1, 1, 3, 3, 3, 2, 2, 1, 3, 2, 2, 2, 2, 2, 4, 3, 3, 2, 2, 1, 2, 1, 1, 1, 1, 1, 3, 2, 2, 2, 1, 1, 2, 2, 2, 2, 1, 1, 4, 3, 3, 2, 1, 1, 4, 3, 3, 3, 3, 3, 5, 4, 3, 3, 3, 2, 4, 4, 4, 4, 4, 4, 2, 2, 2, 2, 2, 2, 4, 3, 3, 2, 2, 2, 2, 1, 1, 1, 1, 1, 2, 2, 2, 1, 1, 1, 5, 4, 4, 3, 3, 3, 4, 3, 3, 3, 3, 3, 4, 4, 4, 4, 3, 3, 3, 3, 3, 2, 1, 1, 3, 3, 2, 2, 1, 1, 2, 1, 1, 1, 1, 1, 3, 3, 3, 2, 2, 2, 1, 1, 1, 1, 1, 1, 3, 2, 2, 2, 2, 2, 4, 4, 4, 4, 4, 4, 4, 4, 4, 4, 4, 4, 2, 2, 2, 2, 2, 2, 4, 4, 4, 4, 4, 4, 4, 3, 2, 2, 2, 1, 4, 4, 4, 4, 4, 4, 4, 3, 3, 2, 2, 1, 3, 3, 3, 3, 2, 2, 3, 2, 2, 1, 1, 1, 2, 2, 2, 2, 2, 2, 5, 4, 4, 4, 3, 3, 4, 4, 4, 4, 4, 4, 3, 2, 2, 2, 1, 1, 4, 4, 4, 4, 4, 4, 4, 3, 3, 3, 2, 2, 4, 4, 4, 3, 3, 2, 3, 2, 2, 1, 1, 1, 2, 2, 2, 2, 1, 1, 2, 2, 2, 2, 2, 2, 3, 3, 3, 2, 1, 1, 3, 3, 3, 3, 3, 3, 4, 4, 3, 3, 2, 1, 2, 2, 2, 2, 2, 2, 5, 4, 3, 2, 2, 1, 4, 4, 4, 3, 3, 3, 4, 4, 4, 3, 3, 2, 5, 4, 4, 4, 4, 4, 4, 3, 3, 2, 2, 1, 3, 2, 2, 2, 2, 2, 1, 1, 1, 1, 1, 1, 3, 3, 3, 3, 3, 3, 4, 4, 3, 3, 3, 2, 4, 4, 4, 3, 2, 2, 5, 4, 4, 4, 4, 4, 3, 2, 2, 1, 1, 1, 4, 4, 3, 2, 2, 1, 4, 4, 4, 4, 4, 4, 2, 2, 2, 2, 2, 2, 4, 4, 4, 4, 4, 4, 4, 4, 4, 4, 4, 4
 |3, 3, 3, 3, 3, 3, 4, 3, 2, 2, 1, 1, 4, 3, 3, 3, 3, 3, 3, 3, 3, 3, 3, 3, 3, 3, 2, 2, 1, 1, 4, 3, 3, 3, 3, 3, 4, 4, 4, 3, 3, 2, 4, 4, 4, 4, 4, 4, 4, 3, 3, 3, 2, 2, 3, 3, 3, 3, 3, 3, 3, 3, 3, 2, 1, 1, 4, 4, 3, 3, 3, 2, 4, 4, 4, 4, 4, 4, 3, 2, 2, 1, 1, 1, 5, 4, 4, 4, 3, 3, 4, 4, 4, 4, 4, 4, 5, 3, 3, 2, 1, 1, 4, 3, 3, 3, 2, 2, 5, 4, 4, 4, 4, 4, 4, 3, 2, 2, 2, 1, 3, 3, 3, 2, 2, 1, 3, 3, 3, 3, 3, 3, 5, 4, 4, 4, 4, 4, 4, 3, 3, 3, 2, 2, 4, 4, 4, 4, 4, 4, 3, 2, 2, 2, 2, 2, 4, 3, 3, 3, 3, 3, 4, 4, 4, 4, 4, 4, 5, 5, 5, 5, 5, 5, 4, 3, 3, 2, 2, 2, 2, 2, 2, 2, 2, 2, 3, 3, 3, 2, 1, 1, 5, 4, 3, 3, 3, 2, 4, 3, 3, 3, 2, 2, 3, 2, 2, 2, 1, 1, 5, 4, 4, 4, 4, 4, 3, 3, 2, 2, 2, 1, 4, 4, 4, 4, 4, 4, 3, 3, 3, 3, 3, 3, 4, 4, 3, 3, 2, 1, 3, 2, 2, 2, 2, 2, 2, 1, 1, 1, 1, 1, 2, 2, 2, 2, 1, 1, 2, 2, 2, 2, 2, 2, 3, 3, 3, 3, 3, 3, 1, 1, 1, 1, 1, 1, 5, 4, 4, 4, 4, 4, 1, 1, 1, 1, 1, 1, 1, 1, 1, 1, 1, 1, 2, 2, 2, 2, 2, 2, 5, 4, 3, 3, 2, 2, 3, 3, 3, 2, 2, 2, 3, 3, 3, 3, 3, 3, 5, 5, 5, 5, 5, 5, 5, 4, 4, 4, 3, 3, 4, 3, 3, 3, 2, 2, 2, 2, 2, 1, 1, 1, 2, 2, 2, 2, 2, 2, 2, 2, 2, 2, 2, 2, 5, 4, 4, 3, 2, 2, 5, 4, 4, 4, 4, 4, 4, 4, 4, 3, 3, 3, 4, 3, 3, 2, 2, 2, 5, 4, 4, 4, 4, 4, 2, 2, 2, 2, 1, 1, 3, 3, 3, 3, 3, 3, 4, 3, 3, 3, 2, 1, 5, 5, 5, 5, 5, 5, 5, 4, 4, 4, 3, 3, 3, 2, 2, 2, 2, 2, 3, 2, 2, 2, 1, 1, 1, 1, 1, 1, 1, 1, 5, 3, 3, 2, 2, 1, 5, 5, 5, 5, 5, 5, 4, 3, 3, 2, 1, 1, 4, 4, 4, 4, 4, 4, 5, 4, 3, 3, 1, 1, 4, 3, 3, 3, 3, 3, 3, 3, 3, 3, 3, 3, 2, 2, 2, 2, 1, 1, 5, 4, 4, 4, 3, 3, 3, 2, 2, 1, 1, 1, 1, 1, 1, 1, 1, 1, 5, 4, 4, 4, 4, 4, 5, 3, 3, 2, 1, 1, 5, 5, 5, 5, 5, 5, 3, 3, 3, 3, 3, 3, 3, 3, 3, 3, 3, 3, 3, 3, 3, 2, 2, 1, 1, 1, 1, 1, 1, 1, 5, 4, 4, 4, 4, 4, 3, 2, 2, 2, 1, 1, 3, 2, 2, 1, 1, 1, 5, 4, 3, 3, 2, 1, 3, 3, 3, 3, 3, 3, 5, 4, 4, 4, 4, 4, 3, 2, 2, 2, 2, 2, 3, 3, 3, 3, 3, 3, 4, 3, 3, 3, 2, 1, 3, 2, 2, 2, 1, 1
 |3, 2, 2, 1, 1, 1, 2, 1, 1, 1, 1, 1, 4, 4, 4, 3, 2, 2, 3, 3, 3, 3, 3, 3, 5, 4, 4, 4, 3, 3, 4, 4, 3, 2, 2, 1, 1, 1, 1, 1, 1, 1, 4, 4, 4, 4, 4, 4, 5, 4, 4, 4, 4, 4, 3, 3, 2, 2, 1, 1, 5, 4, 4, 3, 3, 2, 4, 3, 2, 2, 1, 1, 3, 3, 3, 3, 2, 2, 3, 3, 3, 3, 3, 3, 3, 3, 3, 2, 2, 2, 2, 2, 2, 1, 1, 1, 4, 3, 3, 2, 2, 2, 4, 4, 4, 3, 3, 2, 4, 3, 3, 2, 2, 2, 5, 4, 4, 3, 2, 2, 1, 1, 1, 1, 1, 1, 5, 4, 4, 3, 3, 3, 3, 3, 3, 2, 1, 1, 4, 3, 2, 2, 2, 1, 4, 4, 4, 4, 4, 4, 2, 2, 2, 2, 2, 2, 3, 3, 3, 3, 3, 3, 4, 3, 3, 2, 2, 2, 4, 4, 4, 3, 3, 3, 5, 4, 4, 4, 4, 4, 5, 5, 5, 5, 5, 5, 4, 4, 3, 3, 3, 2, 3, 3, 3, 2, 2, 2, 4, 3, 3, 3, 3, 3, 4, 3, 3, 2, 2, 2, 2, 2, 2, 2, 1, 1, 5, 4, 4, 4, 3, 3, 1, 1, 1, 1, 1, 1, 3, 2, 2, 2, 2, 2, 3, 3, 3, 3, 2, 2, 4, 4, 4, 4, 3, 3, 5, 4, 4, 4, 4, 4, 2, 2, 2, 2, 2, 2, 2, 1, 1, 1, 1, 1, 5, 4, 3, 3, 3, 2, 4, 4, 3, 3, 2, 2, 3, 3, 3, 3, 3, 3, 4, 3, 2, 2, 1, 1, 4, 4, 4, 4, 4, 4, 5, 4, 4, 3, 3, 3, 3, 2, 2, 2, 2, 2, 3, 2, 2, 2, 1, 1, 2, 2, 2, 1, 1, 1, 3, 3, 3, 3, 2, 2, 4, 3, 3, 3, 3, 3, 4, 4, 4, 4, 4, 4, 4, 4, 4, 4, 4, 4, 4, 3, 3, 3, 2, 2, 1, 1, 1, 1, 1, 1, 4, 4, 4, 4, 4, 4, 3, 2, 2, 2, 2, 2, 5, 5, 5, 5, 5, 5, 3, 3, 3, 3, 3, 3, 2, 1, 1, 1, 1, 1, 4, 4, 3, 3, 2, 2, 2, 1, 1, 1, 1, 1, 4, 3, 3, 3, 3, 3, 3, 3, 3, 3, 3, 3, 5, 4, 4, 4, 4, 4, 2, 2, 2, 2, 2, 2, 5, 4, 4, 3, 3, 2, 4, 3, 3, 3, 3, 3, 1, 1, 1, 1, 1, 1, 2, 2, 2, 2, 1, 1, 1, 1, 1, 1, 1, 1, 2, 2, 2, 2, 2, 2, 2, 2, 2, 2, 2, 2, 4, 3, 3, 2, 2, 1, 2, 2, 2, 2, 2, 2, 2, 2, 2, 2, 2, 2, 3, 3, 3, 3, 3, 3, 4, 3, 3, 2, 2, 2, 2, 2, 2, 2, 2, 2, 4, 3, 3, 3, 1, 1, 4, 4, 4, 4, 4, 4, 3, 3, 3, 2, 2, 2, 5, 3, 3, 2, 1, 1, 5, 4, 4, 3, 3, 3, 5, 3, 3, 3, 2, 1, 4, 4, 4, 4, 3, 3, 2, 1, 1, 1, 1, 1, 4, 4, 3, 3, 3, 2, 4, 4, 4, 3, 3, 3, 5, 4, 3, 2, 2, 1, 5, 4, 3, 3, 3, 2, 4, 4, 4, 4, 4, 4, 4, 3, 3, 2, 2, 1, 5, 4, 3, 3, 3, 2, 2, 2, 2, 2, 2, 2, 4, 3, 3, 2, 2, 2
 |17, 16, 13, 11, 9, 7, 25, 24, 20, 19, 16, 15, 23, 20, 17, 13, 10, 3, 30, 26, 24, 21, 17, 13, 26, 20, 17, 14, 10, 4, 18, 18, 13, 9, 8, 4, 15, 14, 14, 13, 13, 13, 23, 20, 14, 11, 5, 2, 23, 20, 15, 13, 9, 8, 20, 17, 13, 11, 10, 9, 2, 2, 2, 2, 2, 2, 26, 25, 25, 24, 24, 23, 26, 20, 18, 12, 8, 2, 18, 17, 15, 11, 10, 8, 17, 16, 15, 14, 13, 12, 20, 17, 14, 12, 11, 10, 24, 23, 22, 21, 19, 18, 27, 24, 22, 20, 17, 17, 18, 17, 16, 15, 15, 13, 27, 25, 25, 22, 21, 19, 29, 29, 29, 29, 29, 29, 10, 8, 8, 6, 4, 3, 19, 17, 14, 11, 9, 9, 21, 21, 15, 12, 8, 6, 6, 5, 4, 2, 1, 1, 4, 4, 4, 3, 3, 2, 18, 17, 17, 17, 17, 17, 11, 9, 8, 5, 5, 3, 25, 24, 22, 21, 19, 18, 27, 26, 26, 26, 26, 26, 20, 16, 13, 10, 8, 6, 16, 14, 10, 8, 5, 3, 26, 25, 19, 17, 15, 9, 27, 25, 24, 21, 18, 17, 28, 27, 26, 26, 26, 25, 25, 22, 20, 20, 18, 15, 20, 15, 13, 11, 9, 9, 26, 23, 23, 21, 17, 15, 28, 27, 22, 19, 19, 14, 27, 27, 26, 24, 23, 21, 14, 13, 12, 11, 10, 10, 22, 19, 16, 12, 8, 5, 9, 8, 7, 7, 6, 5, 29, 29, 28, 28, 28, 27, 17, 15, 12, 9, 8, 6, 5, 4, 3, 2, 2, 1, 26, 20, 20, 17, 12, 9, 27, 23, 19, 18, 13, 11, 25, 22, 20, 18, 13, 13, 11, 9, 9, 8, 7, 6, 26, 23, 23, 21, 18, 17, 16, 16, 16, 15, 15, 15, 16, 11, 9, 8, 3, 2, 22, 19, 17, 16, 14, 11, 18, 18, 18, 18, 18, 18, 25, 22, 21, 18, 16, 15, 22, 21, 19, 16, 13, 12, 16, 14, 13, 13, 9, 9, 17, 15, 14, 12, 10, 6, 26, 23, 23, 20, 19, 18, 16, 15, 15, 14, 14, 14, 26, 25, 25, 24, 24, 24, 22, 21, 20, 20, 17, 17, 16, 14, 12, 8, 8, 5, 9, 8, 8, 8, 7, 7, 17, 16, 16, 15, 15, 15, 14, 12, 11, 9, 7, 6, 25, 23, 20, 15, 9, 3, 25, 21, 17, 12, 7, 5, 22, 18, 17, 15, 12, 11, 28, 20, 16, 16, 10, 6, 15, 13, 13, 11, 6, 4, 10, 8, 7, 6, 4, 2, 22, 19, 18, 14, 14, 12, 11, 8, 7, 4, 4, 2, 4, 3, 3, 3, 2, 2, 27, 22, 19, 14, 12, 7, 12, 11, 10, 6, 6, 3, 24, 22, 21, 20, 18, 16, 4, 4, 3, 3, 3, 2, 7, 6, 6, 5, 5, 5, 22, 21, 21, 20, 20, 20, 7, 6, 6, 4, 4, 3, 21, 21, 21, 20, 19, 19, 20, 19, 19, 19, 19, 19, 15, 15, 15, 14, 13, 13, 4, 4, 4, 3, 3, 3, 28, 20, 19, 13, 11, 8, 29, 24, 20, 17, 9, 5, 20, 18, 17, 16, 14, 14, 17, 17, 17, 17, 17, 17, 12, 11, 11, 11, 11, 11, 13, 12, 9, 8, 5, 4, 16, 14, 14, 14, 13, 12, 25, 23, 18, 11, 10, 4, 9, 9, 9, 8, 8, 8, 15, 13, 12, 9, 7, 2, 17, 13, 11, 10, 5, 3, 28, 23, 19, 15, 13, 10, 27, 25, 24, 23, 23, 21
 |25, 24, 21, 18, 18, 16, 14, 13, 10, 9, 7, 5, 14, 14, 12, 10, 9, 8, 25, 25, 25, 25, 25, 25, 4, 4, 4, 4, 4, 4, 14, 14, 14, 14, 14, 14, 10, 7, 6, 5, 4, 3, 24, 21, 16, 14, 11, 8, 5, 4, 4, 4, 4, 4, 23, 22, 18, 10, 7, 5, 3, 2, 2, 2, 2, 2, 23, 18, 17, 12, 9, 7, 30, 26, 23, 21, 18, 15, 26, 24, 16, 14, 9, 4, 23, 20, 19, 19, 17, 16, 28, 26, 25, 23, 22, 21, 28, 27, 26, 26, 25, 24, 27, 21, 18, 17, 11, 8, 20, 19, 18, 16, 15, 14, 7, 6, 6, 6, 5, 5, 29, 27, 26, 26, 24, 24, 3, 3, 3, 3, 3, 3, 26, 23, 18, 14, 10, 4, 20, 19, 16, 11, 7, 2, 23, 21, 18, 17, 16, 14, 19, 15, 12, 8, 5, 3, 28, 25, 23, 18, 18, 14, 16, 12, 10, 9, 6, 6, 10, 8, 8, 8, 6, 6, 28, 25, 22, 18, 12, 12, 12, 11, 9, 8, 5, 1, 17, 16, 16, 16, 15, 15, 23, 18, 15, 15, 12, 10, 17, 15, 13, 12, 10, 8, 20, 20, 15, 14, 12, 7, 7, 7, 7, 7, 7, 7, 28, 28, 28, 28, 28, 28, 20, 16, 16, 13, 11, 8, 23, 20, 17, 15, 12, 11, 21, 15, 13, 13, 8, 7, 26, 26, 26, 26, 25, 25, 26, 25, 24, 23, 20, 20, 14, 11, 9, 8, 6, 6, 29, 28, 25, 24, 22, 22, 3, 2, 2, 2, 1, 1, 22, 20, 20, 18, 17, 17, 3, 3, 3, 2, 2, 1, 9, 9, 9, 8, 7, 7, 20, 18, 18, 16, 16, 15, 28, 27, 26, 22, 22, 20, 9, 9, 9, 9, 9, 9, 16, 15, 15, 14, 13, 13, 27, 27, 26, 24, 24, 22, 10, 9, 9, 8, 8, 7, 19, 19, 16, 13, 11, 10, 24, 23, 23, 22, 22, 22, 23, 17, 13, 9, 4, 2, 23, 18, 15, 12, 9, 6, 29, 29, 28, 27, 27, 26, 25, 24, 16, 16, 7, 4, 13, 12, 12, 12, 12, 12, 29, 21, 21, 13, 8, 6, 26, 25, 25, 24, 24, 23, 8, 8, 8, 8, 8, 8, 7, 6, 6, 5, 4, 4, 24, 20, 18, 15, 13, 8, 29, 22, 21, 17, 11, 6, 21, 20, 20, 19, 19, 18, 23, 17, 16, 12, 11, 7, 7, 6, 6, 5, 5, 4, 24, 23, 23, 23, 22, 21, 19, 19, 14, 10, 5, 2, 21, 19, 17, 13, 10, 9, 21, 19, 17, 14, 13, 11, 10, 10, 8, 8, 7, 5, 30, 30, 30, 30, 30, 30, 21, 17, 14, 13, 9, 8, 3, 3, 3, 3, 3, 3, 23, 21, 17, 15, 11, 11, 21, 19, 13, 13, 8, 5, 25, 24, 23, 21, 17, 16, 9, 9, 7, 6, 6, 5, 24, 21, 17, 12, 12, 7, 27, 26, 25, 25, 24, 24, 5, 4, 4, 4, 4, 4, 23, 23, 23, 23, 23, 23, 10, 7, 6, 6, 2, 2, 22, 21, 19, 17, 16, 15, 19, 19, 17, 15, 12, 11, 14, 13, 12, 11, 11, 10, 18, 18, 18, 18, 18, 18, 1, 1, 1, 1, 1, 1, 24, 22, 20, 16, 11, 11, 27, 26, 24, 23, 22, 19, 25, 20, 18, 13, 10, 6, 2, 2, 2, 1, 1, 1, 20, 20, 15, 14, 10, 7, 14, 13, 12, 12, 11, 11, 17, 15, 14, 11, 6, 3, 17, 15, 13, 13, 9, 9
 |21, 21, 21, 21, 21, 21, 8, 7, 5, 5, 3, 3, 24, 21, 16, 14, 13, 9, 17, 17, 15, 15, 14, 13, 15, 14, 14, 14, 14, 14, 25, 23, 23, 22, 20, 20, 15, 13, 13, 10, 9, 6, 11, 10, 10, 9, 8, 6, 20, 18, 17, 15, 12, 9, 19, 17, 14, 11, 10, 6, 30, 25, 24, 21, 18, 17, 23, 19, 14, 11, 5, 3, 26, 26, 23, 22, 20, 18, 28, 25, 24, 23, 20, 17, 17, 15, 14, 13, 11, 7, 11, 11, 10, 8, 7, 6, 25, 25, 24, 22, 21, 21, 13, 10, 9, 6, 5, 1, 23, 22, 15, 10, 9, 6, 23, 21, 19, 16, 15, 13, 4, 3, 3, 3, 3, 3, 24, 22, 20, 12, 9, 7, 18, 14, 11, 11, 8, 4, 24, 22, 17, 14, 10, 4, 26, 24, 22, 17, 15, 10, 13, 13, 11, 8, 4, 2, 22, 19, 15, 13, 8, 6, 24, 24, 23, 23, 22, 21, 26, 26, 26, 25, 25, 25, 24, 21, 19, 15, 12, 9, 24, 20, 18, 14, 14, 12, 23, 18, 16, 16, 13, 10, 23, 21, 19, 14, 11, 10, 11, 11, 10, 10, 8, 8, 21, 21, 17, 15, 12, 11, 14, 11, 10, 8, 4, 3, 12, 10, 10, 9, 8, 8, 14, 13, 11, 10, 9, 9, 24, 22, 22, 19, 16, 15, 15, 12, 11, 10, 9, 7, 27, 19, 15, 11, 10, 7, 26, 23, 15, 13, 11, 6, 12, 11, 8, 7, 5, 4, 29, 29, 29, 28, 28, 27, 7, 7, 7, 7, 7, 7, 25, 25, 25, 25, 25, 25, 29, 23, 21, 15, 13, 11, 12, 10, 8, 6, 5, 2, 19, 18, 18, 18, 17, 17, 20, 20, 20, 20, 20, 20, 28, 22, 20, 13, 9, 6, 20, 19, 19, 19, 19, 19, 21, 21, 19, 19, 17, 17, 21, 21, 19, 16, 15, 12, 19, 14, 14, 9, 6, 2, 26, 25, 23, 23, 21, 19, 5, 4, 4, 4, 3, 3, 2, 2, 2, 2, 1, 1, 23, 22, 22, 21, 21, 21, 16, 16, 14, 14, 12, 11, 19, 18, 17, 17, 17, 16, 9, 8, 6, 5, 5, 2, 17, 16, 16, 13, 13, 11, 15, 14, 14, 14, 12, 12, 23, 20, 17, 16, 14, 12, 21, 21, 21, 20, 20, 19, 22, 16, 15, 12, 11, 7, 21, 20, 19, 18, 17, 17, 28, 28, 28, 28, 28, 28, 8, 6, 6, 5, 4, 4, 12, 10, 9, 6, 6, 2, 30, 27, 25, 25, 22, 21, 12, 12, 10, 9, 7, 5, 16, 16, 16, 16, 16, 16, 11, 9, 8, 8, 6, 6, 16, 14, 12, 10, 9, 9, 5, 4, 4, 3, 2, 2, 7, 6, 4, 3, 3, 2, 26, 25, 24, 23, 20, 19, 10, 10, 8, 8, 5, 4, 6, 6, 5, 4, 2, 2, 2, 1, 1, 1, 1, 1, 17, 16, 14, 13, 13, 12, 20, 17, 15, 15, 12, 10, 27, 24, 24, 23, 22, 21, 12, 12, 10, 9, 8, 7, 21, 20, 18, 14, 13, 12, 23, 21, 17, 15, 14, 10, 17, 15, 13, 9, 5, 2, 29, 28, 26, 24, 21, 20, 10, 10, 8, 8, 6, 6, 27, 24, 22, 17, 16, 12, 19, 14, 12, 9, 8, 3, 7, 7, 7, 6, 5, 5, 21, 19, 14, 12, 9, 3, 27, 24, 23, 23, 20, 20, 26, 24, 24, 24, 22, 22, 30, 26, 24, 23, 19, 18, 27, 27, 26, 25, 24, 22, 27, 21, 21, 17, 13, 11
 |23, 23, 21, 20, 19, 19, 24, 22, 18, 11, 10, 4, 4, 3, 3, 2, 2, 2, 6, 6, 5, 5, 5, 4, 27, 24, 24, 23, 21, 21, 23, 23, 23, 23, 23, 23, 13, 12, 12, 10, 9, 7, 26, 19, 19, 15, 9, 9, 18, 16, 14, 9, 8, 5, 22, 22, 18, 14, 12, 7, 26, 24, 23, 22, 19, 17, 27, 25, 25, 24, 24, 23, 21, 17, 14, 14, 11, 9, 27, 26, 25, 25, 23, 23, 27, 25, 24, 22, 21, 20, 22, 21, 20, 19, 19, 18, 2, 2, 2, 2, 2, 2, 28, 26, 24, 21, 21, 18, 6, 4, 4, 3, 2, 2, 27, 25, 24, 23, 22, 21, 17, 14, 14, 9, 9, 6, 22, 20, 19, 17, 15, 13, 21, 20, 20, 18, 18, 17, 12, 11, 10, 9, 8, 7, 14, 13, 11, 9, 8, 5, 11, 10, 9, 7, 7, 5, 16, 16, 16, 15, 15, 15, 12, 10, 9, 8, 7, 7, 28, 28, 27, 25, 23, 21, 11, 10, 10, 10, 10, 10, 23, 23, 23, 23, 23, 23, 26, 23, 20, 20, 16, 15, 29, 28, 28, 28, 28, 28, 26, 25, 24, 24, 23, 23, 2, 2, 2, 2, 2, 2, 22, 18, 16, 14, 11, 7, 25, 22, 20, 18, 17, 14, 11, 9, 7, 5, 5, 2, 28, 23, 21, 15, 14, 10, 9, 9, 9, 9, 9, 9, 28, 28, 26, 26, 25, 24, 3, 2, 2, 2, 1, 1, 21, 21, 19, 16, 13, 13, 20, 16, 12, 8, 5, 3, 27, 20, 17, 12, 5, 4, 12, 9, 7, 5, 2, 1, 9, 9, 9, 8, 8, 7, 12, 12, 9, 5, 4, 1, 19, 17, 11, 8, 5, 4, 16, 14, 12, 12, 9, 9, 17, 17, 17, 16, 16, 16, 4, 4, 3, 2, 2, 1, 15, 14, 14, 14, 13, 13, 23, 22, 18, 16, 14, 12, 25, 23, 21, 19, 17, 16, 24, 23, 15, 13, 7, 5, 17, 16, 15, 15, 13, 13, 3, 3, 3, 2, 2, 2, 29, 27, 21, 20, 17, 14, 24, 22, 20, 15, 13, 11, 16, 15, 15, 15, 14, 14, 27, 26, 26, 25, 25, 25, 16, 15, 12, 8, 8, 3, 9, 9, 9, 9, 9, 9, 17, 14, 14, 11, 11, 9, 19, 17, 17, 14, 13, 12, 30, 26, 24, 21, 17, 15, 12, 11, 11, 10, 10, 10, 28, 27, 27, 27, 27, 27, 27, 25, 23, 21, 18, 14, 28, 25, 22, 20, 16, 14, 20, 19, 18, 17, 16, 15, 18, 17, 17, 16, 16, 15, 10, 10, 10, 10, 10, 10, 6, 5, 5, 5, 4, 4, 30, 25, 22, 16, 14, 12, 26, 24, 24, 23, 22, 22, 18, 16, 16, 14, 12, 11, 11, 11, 10, 8, 8, 7, 28, 22, 21, 15, 12, 11, 7, 7, 7, 7, 7, 7, 21, 21, 17, 16, 10, 10, 18, 17, 15, 15, 14, 12, 24, 21, 15, 13, 9, 5, 27, 26, 25, 26, 26, 26, 16, 15, 16, 16, 16, 16, 24, 21, 20, 17, 13, 12, 25, 23, 20, 17, 13, 11, 20, 19, 13, 12, 7, 5, 14, 11, 11, 7, 4, 1, 21, 18, 16, 12, 11, 8, 7, 5, 4, 4, 2, 2, 15, 15, 14, 12, 11, 11, 21, 20, 18, 17, 16, 14, 20, 18, 16, 15, 14, 12, 20, 19, 18, 17, 17, 16, 21, 21, 20, 20, 19, 19, 13, 13, 13, 13, 12, 12, 25, 24, 19, 14, 9, 5, 29, 25, 19, 15, 7, 3|];